(set-logic HORN)
(set-info :source |
  Benchmark: test_safe_2019/mochi/bcopy.ml
  Generated by MoCHi
|)
(set-info :status unknown)
(declare-fun |fail_21[0:0]| ( Int) Bool)
(declare-fun |bcopy_aux[0:3]| ( Int  Int  Int  Int) Bool)
(assert (not (exists ((x0 Int)) (|fail_21[0:0]| x0))))
(assert (forall ((x0 Int)(x2 Int)(x1 Int)(var184 Int)(var185 Int)) (=> (and (|bcopy_aux[0:3]| var184 x1 x2 var185) (and (>= x2 x1) (and (<= (+ 1 x2) var184) (and (<= 0 x2) (<= (+ 1 x2) var185))))) (|fail_21[0:0]| x0))))
(assert (forall ((x4 Int)(x1 Int)(x0 Int)(x3 Int)(x2 Int)) (=> (and (|bcopy_aux[0:3]| x4 x1 x2 x3) (and (<= 0 x2) (and (<= (+ 1 x2) x1) (and (<= (+ 1 x2) x4) (and (<= (+ 1 x2) x3) (= x0 (+ 1 x2))))))) (|bcopy_aux[0:3]| x4 x1 x0 x3))))
(assert (forall ((x4 Int)(x5 Int)(x0 Int)(x1 Int)) (=> (and (= x0 0) (and (<= x1 x5) (= x1 x4))) (|bcopy_aux[0:3]| x4 x5 x0 x1))))
(check-sat)
(get-model)
(exit)
